#######################
Slurm job id: 17497813_338
Running on machine: p77
Running cmd: /nfs/shared/static-builds/gurobi1202 SOFTMEMLIMIT=125 MIPFocus=2 Presolve=2 TimeLimit=300 seed=7 /nfs/models/miplib2010/k16x240.mps.bz2
#######################
Set parameter TimeLimit to value 300
Set parameter SoftMemLimit to value 125
Set parameter MIPFocus to value 2
Set parameter LogFile to value 1202-MIPFocus2-Presolve2-TimeLimit300-k16x240-7.log
Set parameter Presolve to value 2
Set parameter Seed to value 7
Using license file /opt/gurobi/gurobi.lic

Gurobi Optimizer version 12.0.2 build v12.0.2rc0 (linux64 - "Ubuntu 22.04.4 LTS")
Copyright (c) 2025, Gurobi Optimization, LLC

Read MPS format model from file /nfs/models/miplib2010/k16x240.mps.bz2
Reading time = 0.01 seconds
k16x240: 256 rows, 480 columns, 960 nonzeros

Using Gurobi shared library /nfs/shared/static-builds/gurobi1202

CPU model: Intel(R) Xeon(R) E-2388G CPU @ 3.20GHz, instruction set [SSE2|AVX|AVX2|AVX512]
Thread count: 8 physical cores, 16 logical processors, using up to 16 threads

Non-default parameters:
TimeLimit  300
SoftMemLimit  125
MIPFocus  2
Presolve  2
Seed  7

Optimize a model with 256 rows, 480 columns and 960 nonzeros
Model fingerprint: 0x4e80885f
Variable types: 240 continuous, 240 integer (240 binary)
Coefficient statistics:
  Matrix range     [1e+00, 1e+03]
  Objective range  [1e+00, 1e+03]
  Bounds range     [1e+00, 1e+03]
  RHS range        [4e+00, 4e+02]
Found heuristic solution: objective 24303.000000
Presolve time: 0.00s
Presolved: 256 rows, 480 columns, 960 nonzeros
Variable types: 240 continuous, 240 integer (240 binary)
Root relaxation presolve removed 241 rows and 240 columns
Root relaxation presolved: 15 rows, 240 columns, 450 nonzeros


Root relaxation: objective 2.769838e+03, 16 iterations, 0.00 seconds (0.00 work units)

    Nodes    |    Current Node    |     Objective Bounds      |     Work
 Expl Unexpl |  Obj  Depth IntInf | Incumbent    BestBd   Gap | It/Node Time

     0     0 2769.83800    0   14 24303.0000 2769.83800  88.6%     -    0s
H    0     0                    11359.000000 2769.83800  75.6%     -    0s
H    0     0                    11248.000000 2769.83800  75.4%     -    0s
H    0     0                    11240.000000 8116.87580  27.8%     -    0s
     0     0 8116.87580    0   26 11240.0000 8116.87580  27.8%     -    0s
H    0     0                    11174.000000 8190.91086  26.7%     -    0s
H    0     0                    11170.000000 8190.91086  26.7%     -    0s
H    0     0                    11094.000000 8190.91086  26.2%     -    0s
H    0     0                    11077.000000 8190.91086  26.1%     -    0s
H    0     0                    11025.000000 8190.91086  25.7%     -    0s
H    0     0                    10981.000000 8190.91086  25.4%     -    0s
     0     0 8588.30479    0   25 10981.0000 8588.30479  21.8%     -    0s
     0     0 8613.92228    0   22 10981.0000 8613.92228  21.6%     -    0s
     0     0 8718.84268    0   23 10981.0000 8718.84268  20.6%     -    0s
H    0     0                    10901.000000 8722.85527  20.0%     -    0s
H    0     0                    10883.000000 8722.85527  19.8%     -    0s
H    0     0                    10869.000000 8841.21632  18.7%     -    0s
H    0     0                    10853.000000 8841.21632  18.5%     -    0s
     0     0 8841.21632    0   38 10853.0000 8841.21632  18.5%     -    0s
     0     0 8841.47582    0   38 10853.0000 8841.47582  18.5%     -    0s
H    0     0                    10826.000000 8841.47582  18.3%     -    0s
     0     0 8965.95716    0   48 10826.0000 8965.95716  17.2%     -    0s
     0     0 8998.12995    0   41 10826.0000 8998.12995  16.9%     -    0s
     0     0 9001.43610    0   42 10826.0000 9001.43610  16.9%     -    0s
     0     0 9056.34338    0   24 10826.0000 9056.34338  16.3%     -    0s
     0     0 9071.72361    0   31 10826.0000 9071.72361  16.2%     -    0s
     0     0 9071.86222    0   33 10826.0000 9071.86222  16.2%     -    0s
     0     0 9099.08085    0   32 10826.0000 9099.08085  16.0%     -    0s
     0     0 9099.76098    0   32 10826.0000 9099.76098  15.9%     -    0s
     0     2 9100.20399    0   32 10826.0000 9100.20399  15.9%     -    0s
H   37    64                    10795.000000 9176.56390  15.0%  50.9    0s
H   42    64                    10732.000000 9176.56390  14.5%  50.8    0s
H  199   234                    10678.000000 9176.56390  14.1%  36.7    0s
H  204   234                    10674.000000 9176.56390  14.0%  36.1    0s
 25628 10125     cutoff   27      10674.0000 9947.87727  6.80%  27.8    5s
 63207 18353     cutoff   20      10674.0000 10128.1632  5.11%  27.7   10s
 103024 21270 10396.9493   32    6 10674.0000 10249.1457  3.98%  27.9   15s
 135650 18387 10580.4736   27    8 10674.0000 10348.9542  3.05%  28.1   20s
 171730  3163     cutoff   33      10674.0000 10524.5687  1.40%  27.6   25s

Cutting planes:
  Gomory: 2
  Lift-and-project: 10
  Cover: 77
  Implied bound: 23
  Dual implied bound: 19
  MIR: 205
  Mixing: 3
  Flow cover: 292
  Flow path: 47
  Inf proof: 3
  Zero half: 8
  Network: 48
  Relax-and-lift: 2

Explored 177275 nodes (4827126 simplex iterations) in 25.35 seconds (37.41 work units)
Thread count was 16 (of 16 available processors)

Solution count 10: 10674 10678 10732 ... 10981

Optimal solution found (tolerance 1.00e-04)
Best objective 1.067400000000e+04, best bound 1.067400000000e+04, gap 0.0000%
